SCIP Status        : problem creation / modification
Total Time         :       0.03
  reading          :       0.03
Original Problem   :
  Problem name     : main4.zpl
  Variables        : 3010 (3010 binary, 0 integer, 0 implicit integer, 0 continuous)
  Constraints      : 0 initial, 3310 maximal
  Objective        : minimize, 3010 non-zeros (abs.min = 0.00187, abs.max = 5700)
